words_hard_train/5159.qaiger
aag 133 16 0 1 117
2
4
8
10
26
28
74
88
114
116
152
154
190
192
226
230
267
6 3 4
12 9 10
14 7 13
16 8 11
18 14 17
20 2 5
22 18 21
24 15 17
30 26 29
32 27 28
34 31 33
36 25 35
38 24 34
40 37 39
42 23 41
44 22 40
46 43 45
48 2 9
50 5 11
52 49 51
54 21 8
56 54 10
58 52 57
60 51 28
62 50 29
64 61 63
66 58 64
68 47 67
70 59 65
72 69 71
76 63 74
78 62 75
80 77 79
82 73 81
84 72 80
86 39 33
90 88 75
92 89 74
94 91 93
96 86 95
98 87 94
100 97 99
102 45 101
104 44 100
106 103 105
108 85 107
110 83 109
112 99 93
118 114 117
120 115 116
122 119 121
124 112 123
126 113 122
128 125 127
130 105 129
132 104 128
134 131 133
136 79 116
138 78 117
140 137 139
142 135 141
144 110 143
146 134 140
148 145 147
150 127 121
156 152 155
158 153 154
160 157 159
162 150 161
164 151 160
166 163 165
168 133 167
170 132 166
172 169 171
174 139 154
176 138 155
178 175 177
180 173 179
182 149 181
184 172 178
186 183 185
188 165 159
194 190 193
196 191 192
198 195 197
200 188 199
202 189 198
204 201 203
206 171 205
208 170 204
210 207 209
212 177 192
214 176 193
216 213 215
218 211 217
220 187 219
222 210 216
224 221 223
228 224 227
232 230 226
234 231 227
236 233 235
238 203 197
240 236 239
242 237 238
244 241 243
246 245 209
248 244 208
250 247 249
252 250 214
254 228 253
256 225 226
258 252 256
260 255 259
262 251 215
264 262 257
266 260 265
i0 1 x1[0]
i1 2 y2[0]
i2 1 x1[1]
i3 2 y2[1]
i4 1 x1[2]
i5 2 y2[2]
i6 2 y2[3]
i7 1 x1[3]
i8 1 x1[4]
i9 2 y2[4]
i10 1 x1[5]
i11 2 y2[5]
i12 1 x1[6]
i13 2 y2[6]
i14 2 y2[7]
i15 1 x1[7]
o0 bv[0]
c
simplified
  >
    2 y2
    add
      1
      add
        invert
          1 x1
        2 y2
