words_hard_train/5159.qaiger.qdimacs
p cnf 133 352
a 1 4 44 13 76 115 57 95 0
e 2 3 5 6 7 8 9 10 11 12 14 15 16 17 18 19 20 21 22 23 24 25 26 27 28 29 30 31 32 33 34 35 36 37 38 39 40 41 42 43 45 46 47 48 49 50 51 52 53 54 55 56 58 59 60 61 62 63 64 65 66 67 68 69 70 71 72 73 74 75 77 78 79 80 81 82 83 84 85 86 87 88 89 90 91 92 93 94 96 97 98 99 100 101 102 103 104 105 106 107 108 109 110 111 112 113 114 116 117 118 119 120 121 122 123 124 125 126 127 128 129 130 131 132 133 0
1 -2 3 0
-1 -3 0
2 -3 0
4 -5 6 0
-4 -6 0
5 -6 0
3 6 7 0
-3 -7 0
-6 -7 0
-4 5 8 0
4 -8 0
-5 -8 0
-7 8 9 0
7 -9 0
-8 -9 0
-1 2 10 0
1 -10 0
-2 -10 0
-9 10 11 0
9 -11 0
-10 -11 0
7 8 12 0
-7 -12 0
-8 -12 0
-13 14 15 0
13 -15 0
-14 -15 0
13 -14 16 0
-13 -16 0
14 -16 0
15 16 17 0
-15 -17 0
-16 -17 0
12 17 18 0
-12 -18 0
-17 -18 0
-12 -17 19 0
12 -19 0
17 -19 0
18 19 20 0
-18 -20 0
-19 -20 0
11 20 21 0
-11 -21 0
-20 -21 0
-11 -20 22 0
11 -22 0
20 -22 0
21 22 23 0
-21 -23 0
-22 -23 0
-1 4 24 0
1 -24 0
-4 -24 0
2 5 25 0
-2 -25 0
-5 -25 0
24 25 26 0
-24 -26 0
-25 -26 0
10 -4 27 0
-10 -27 0
4 -27 0
-27 -5 28 0
27 -28 0
5 -28 0
-26 28 29 0
26 -29 0
-28 -29 0
25 -14 30 0
-25 -30 0
14 -30 0
-25 14 31 0
25 -31 0
-14 -31 0
30 31 32 0
-30 -32 0
-31 -32 0
-29 -32 33 0
29 -33 0
32 -33 0
23 33 34 0
-23 -34 0
-33 -34 0
29 32 35 0
-29 -35 0
-32 -35 0
34 35 36 0
-34 -36 0
-35 -36 0
31 -37 38 0
-31 -38 0
37 -38 0
-31 37 39 0
31 -39 0
-37 -39 0
38 39 40 0
-38 -40 0
-39 -40 0
36 40 41 0
-36 -41 0
-40 -41 0
-36 -40 42 0
36 -42 0
40 -42 0
19 16 43 0
-19 -43 0
-16 -43 0
-44 37 45 0
44 -45 0
-37 -45 0
44 -37 46 0
-44 -46 0
37 -46 0
45 46 47 0
-45 -47 0
-46 -47 0
-43 47 48 0
43 -48 0
-47 -48 0
43 -47 49 0
-43 -49 0
47 -49 0
48 49 50 0
-48 -50 0
-49 -50 0
22 50 51 0
-22 -51 0
-50 -51 0
-22 -50 52 0
22 -52 0
50 -52 0
51 52 53 0
-51 -53 0
-52 -53 0
42 53 54 0
-42 -54 0
-53 -54 0
41 54 55 0
-41 -55 0
-54 -55 0
49 46 56 0
-49 -56 0
-46 -56 0
-57 58 59 0
57 -59 0
-58 -59 0
57 -58 60 0
-57 -60 0
58 -60 0
59 60 61 0
-59 -61 0
-60 -61 0
-56 61 62 0
56 -62 0
-61 -62 0
56 -61 63 0
-56 -63 0
61 -63 0
62 63 64 0
-62 -64 0
-63 -64 0
52 64 65 0
-52 -65 0
-64 -65 0
-52 -64 66 0
52 -66 0
64 -66 0
65 66 67 0
-65 -67 0
-66 -67 0
39 -58 68 0
-39 -68 0
58 -68 0
-39 58 69 0
39 -69 0
-58 -69 0
68 69 70 0
-68 -70 0
-69 -70 0
67 70 71 0
-67 -71 0
-70 -71 0
-55 71 72 0
55 -72 0
-71 -72 0
-67 -70 73 0
67 -73 0
70 -73 0
72 73 74 0
-72 -74 0
-73 -74 0
63 60 75 0
-63 -75 0
-60 -75 0
-76 77 78 0
76 -78 0
-77 -78 0
76 -77 79 0
-76 -79 0
77 -79 0
78 79 80 0
-78 -80 0
-79 -80 0
-75 80 81 0
75 -81 0
-80 -81 0
75 -80 82 0
-75 -82 0
80 -82 0
81 82 83 0
-81 -83 0
-82 -83 0
66 83 84 0
-66 -84 0
-83 -84 0
-66 -83 85 0
66 -85 0
83 -85 0
84 85 86 0
-84 -86 0
-85 -86 0
69 -77 87 0
-69 -87 0
77 -87 0
-69 77 88 0
69 -88 0
-77 -88 0
87 88 89 0
-87 -89 0
-88 -89 0
86 89 90 0
-86 -90 0
-89 -90 0
74 90 91 0
-74 -91 0
-90 -91 0
-86 -89 92 0
86 -92 0
89 -92 0
91 92 93 0
-91 -93 0
-92 -93 0
82 79 94 0
-82 -94 0
-79 -94 0
-95 96 97 0
95 -97 0
-96 -97 0
95 -96 98 0
-95 -98 0
96 -98 0
97 98 99 0
-97 -99 0
-98 -99 0
-94 99 100 0
94 -100 0
-99 -100 0
94 -99 101 0
-94 -101 0
99 -101 0
100 101 102 0
-100 -102 0
-101 -102 0
85 102 103 0
-85 -103 0
-102 -103 0
-85 -102 104 0
85 -104 0
102 -104 0
103 104 105 0
-103 -105 0
-104 -105 0
88 -96 106 0
-88 -106 0
96 -106 0
-88 96 107 0
88 -107 0
-96 -107 0
106 107 108 0
-106 -108 0
-107 -108 0
105 108 109 0
-105 -109 0
-108 -109 0
93 109 110 0
-93 -110 0
-109 -110 0
-105 -108 111 0
105 -111 0
108 -111 0
110 111 112 0
-110 -112 0
-111 -112 0
-112 113 114 0
112 -114 0
-113 -114 0
-115 -113 116 0
115 -116 0
113 -116 0
115 113 117 0
-115 -117 0
-113 -117 0
116 117 118 0
-116 -118 0
-117 -118 0
101 98 119 0
-101 -119 0
-98 -119 0
-118 119 120 0
118 -120 0
-119 -120 0
118 -119 121 0
-118 -121 0
119 -121 0
120 121 122 0
-120 -122 0
-121 -122 0
122 104 123 0
-122 -123 0
-104 -123 0
-122 -104 124 0
122 -124 0
104 -124 0
123 124 125 0
-123 -125 0
-124 -125 0
-125 -107 126 0
125 -126 0
107 -126 0
-114 126 127 0
114 -127 0
-126 -127 0
112 -113 128 0
-112 -128 0
113 -128 0
-126 -128 129 0
126 -129 0
128 -129 0
127 129 130 0
-127 -130 0
-129 -130 0
125 107 131 0
-125 -131 0
-107 -131 0
-131 128 132 0
131 -132 0
-128 -132 0
-130 132 133 0
130 -133 0
-132 -133 0
-133 0
